(set-logic QF_NRA)
(set-info :source |Benchmarks generated from hycomp (https://es-static.fbk.eu/tools/hycomp/). BMC instances of non-linear hybrid automata taken from: Alessandro Cimatti, Sergio Mover, Stefano Tonetta, A quantifier-free SMT encoding of non-linear hybrid automata, FMCAD 2012 and Alessandro Cimatti, Sergio Mover, Stefano Tonetta, Quantier-free encoding of invariants for Hybrid Systems, Formal Methods in System Design. This instance solves a BMC problem of depth 3 and uses the quantifier free encoding encoding. Contacts: Sergio Mover (mover@fbk.eu), Stefano Tonetta (tonettas@fbk.eu), Alessandro Cimatti (cimatti@fbk.eu).|)
(set-info :smt-lib-version 2.0)
(set-info :category "industrial")
(set-info :status unsat)
;; MathSAT API call trace
;; generated on Mon Mar 19 10:45:01 2012
(declare-fun b.counter.3__AT1 () Bool)
(declare-fun b.EVENT.1__AT0 () Bool)
(declare-fun b.x__AT0 () Real)
(declare-fun b.time__AT3 () Real)
(declare-fun b.speed_x__AT1 () Real)
(declare-fun b.delta__AT3 () Real)
(declare-fun b.time__AT1 () Real)
(declare-fun g__AT0 () Real)
(declare-fun b.y__AT0 () Real)
(declare-fun b.EVENT.0__AT1 () Bool)
(declare-fun b.speed_y__AT1 () Real)
(declare-fun b.EVENT.0__AT3 () Bool)
(declare-fun b.delta__AT1 () Real)
(declare-fun b.counter.0__AT0 () Bool)
(declare-fun b.EVENT.1__AT1 () Bool)
(declare-fun b.EVENT.1__AT3 () Bool)
(declare-fun b.counter.1__AT0 () Bool)
(declare-fun b.delta__AT0 () Real)
(declare-fun b.EVENT.0__AT0 () Bool)
(declare-fun b.event_is_timed__AT2 () Bool)
(declare-fun b.x__AT1 () Real)
(declare-fun b.speed_y__AT0 () Real)
(declare-fun b.time__AT2 () Real)
(declare-fun b.y__AT2 () Real)
(declare-fun b.delta__AT2 () Real)
(declare-fun b.counter.0__AT2 () Bool)
(declare-fun b.x__AT2 () Real)
(declare-fun b.EVENT.0__AT2 () Bool)
(declare-fun b.counter.1__AT2 () Bool)
(declare-fun b.EVENT.1__AT2 () Bool)
(declare-fun b.y__AT3 () Real)
(declare-fun b.counter.2__AT2 () Bool)
(declare-fun b.counter.3__AT0 () Bool)
(declare-fun b.counter.3__AT2 () Bool)
(declare-fun b.counter.0__AT3 () Bool)
(declare-fun b.x__AT3 () Real)
(declare-fun b.counter.1__AT3 () Bool)
(declare-fun b.event_is_timed__AT0 () Bool)
(declare-fun b.speed_x__AT2 () Real)
(declare-fun b.speed_y__AT2 () Real)
(declare-fun speed_loss__AT0 () Real)
(declare-fun b.counter.2__AT3 () Bool)
(declare-fun b.y__AT1 () Real)
(declare-fun b.event_is_timed__AT1 () Bool)
(declare-fun b.counter.3__AT3 () Bool)
(declare-fun b.counter.0__AT1 () Bool)
(declare-fun b.event_is_timed__AT3 () Bool)
(declare-fun b.speed_x__AT0 () Real)
(declare-fun b.speed_x__AT3 () Real)
(declare-fun b.counter.1__AT1 () Bool)
(declare-fun b.time__AT0 () Real)
(declare-fun b.speed_y__AT3 () Real)
(declare-fun b.counter.2__AT0 () Bool)
(declare-fun b.counter.2__AT1 () Bool)
(assert (let ((.def_78 (* (- 1.0) g__AT0)))
(let ((.def_79 (* (/ 1 2) .def_78)))
(let ((.def_87 (* 2.0 .def_79)))
(let ((.def_93 (* (- 1.0) .def_87)))
(let ((.def_643 (* .def_93 b.delta__AT3)))
(let ((.def_644 (<= b.speed_y__AT3 .def_643)))
(let ((.def_642 (<= b.speed_y__AT3 0.0 )))
(let ((.def_645 (and .def_642 .def_644)))
(let ((.def_638 (* .def_87 b.delta__AT3)))
(let ((.def_639 (+ b.speed_y__AT3 .def_638)))
(let ((.def_640 (<= 0.0 .def_639)))
(let ((.def_637 (<= 0.0 b.speed_y__AT3)))
(let ((.def_641 (and .def_637 .def_640)))
(let ((.def_646 (or .def_641 .def_645)))
(let ((.def_632 (* b.speed_y__AT3 b.delta__AT3)))
(let ((.def_630 (* b.delta__AT3 b.delta__AT3)))
(let ((.def_631 (* .def_79 .def_630)))
(let ((.def_633 (+ .def_631 .def_632)))
(let ((.def_634 (+ b.y__AT3 .def_633)))
(let ((.def_635 (<= 0.0 .def_634)))
(let ((.def_616 (<= 0.0 b.y__AT3)))
(let ((.def_636 (and .def_616 .def_635)))
(let ((.def_647 (and .def_636 .def_646)))
(let ((.def_59 (<= g__AT0 10.0 )))
(let ((.def_58 (<= 8.0 g__AT0)))
(let ((.def_60 (and .def_58 .def_59)))
(let ((.def_648 (and .def_60 .def_647)))
(let ((.def_67 (<= speed_loss__AT0 (/ 1 2))))
(let ((.def_64 (<= (/ 1 10) speed_loss__AT0)))
(let ((.def_68 (and .def_64 .def_67)))
(let ((.def_649 (and .def_68 .def_648)))
(let ((.def_339 (not b.counter.0__AT2)))
(let ((.def_327 (not b.counter.1__AT2)))
(let ((.def_621 (and .def_327 .def_339)))
(let ((.def_625 (or b.counter.3__AT2 .def_621)))
(let ((.def_622 (or b.counter.2__AT2 .def_621)))
(let ((.def_334 (not b.counter.2__AT2)))
(let ((.def_620 (or .def_327 .def_334)))
(let ((.def_623 (and .def_620 .def_622)))
(let ((.def_349 (not b.counter.3__AT2)))
(let ((.def_624 (or .def_349 .def_623)))
(let ((.def_626 (and .def_624 .def_625)))
(let ((.def_69 (and .def_60 .def_68)))
(let ((.def_617 (and .def_69 .def_616)))
(let ((.def_613 (not b.EVENT.0__AT3)))
(let ((.def_611 (not b.EVENT.1__AT3)))
(let ((.def_614 (or .def_611 .def_613)))
(let ((.def_9 (not b.counter.0__AT3)))
(let ((.def_6 (not b.counter.1__AT3)))
(let ((.def_604 (or .def_6 .def_9)))
(let ((.def_608 (or b.counter.3__AT3 .def_604)))
(let ((.def_605 (or b.counter.2__AT3 .def_604)))
(let ((.def_4 (not b.counter.2__AT3)))
(let ((.def_603 (or .def_4 .def_9)))
(let ((.def_606 (and .def_603 .def_605)))
(let ((.def_14 (not b.counter.3__AT3)))
(let ((.def_607 (or .def_14 .def_606)))
(let ((.def_609 (and .def_607 .def_608)))
(let ((.def_615 (and .def_609 .def_614)))
(let ((.def_618 (and .def_615 .def_617)))
(let ((.def_598 (<= 0.0 b.delta__AT2)))
(let ((.def_437 (not b.EVENT.0__AT2)))
(let ((.def_435 (not b.EVENT.1__AT2)))
(let ((.def_501 (and .def_435 .def_437)))
(let ((.def_502 (not .def_501)))
(let ((.def_599 (or .def_502 .def_598)))
(let ((.def_600 (or b.EVENT.1__AT2 .def_599)))
(let ((.def_547 (= b.counter.0__AT3 b.counter.0__AT2)))
(let ((.def_545 (= b.counter.1__AT3 b.counter.1__AT2)))
(let ((.def_543 (= b.counter.2__AT3 b.counter.2__AT2)))
(let ((.def_542 (= b.counter.3__AT3 b.counter.3__AT2)))
(let ((.def_544 (and .def_542 .def_543)))
(let ((.def_546 (and .def_544 .def_545)))
(let ((.def_548 (and .def_546 .def_547)))
(let ((.def_595 (or .def_502 .def_548)))
(let ((.def_596 (or b.EVENT.1__AT2 .def_595)))
(let ((.def_555 (= b.x__AT2 b.x__AT3)))
(let ((.def_552 (= b.y__AT2 b.y__AT3)))
(let ((.def_589 (and .def_552 .def_555)))
(let ((.def_482 (= b.speed_x__AT2 b.speed_x__AT3)))
(let ((.def_590 (and .def_482 .def_589)))
(let ((.def_541 (= b.speed_y__AT2 b.speed_y__AT3)))
(let ((.def_591 (and .def_541 .def_590)))
(let ((.def_586 (= b.delta__AT2 0.0 )))
(let ((.def_587 (and .def_501 .def_586)))
(let ((.def_588 (not .def_587)))
(let ((.def_592 (or .def_588 .def_591)))
(let ((.def_593 (or b.EVENT.1__AT2 .def_592)))
(let ((.def_566 (= b.time__AT2 b.time__AT3)))
(let ((.def_578 (and .def_555 .def_566)))
(let ((.def_579 (and .def_552 .def_578)))
(let ((.def_580 (and .def_482 .def_579)))
(let ((.def_581 (and .def_541 .def_580)))
(let ((.def_582 (and .def_548 .def_581)))
(let ((.def_583 (or .def_435 .def_582)))
(let ((.def_569 (* (- 1.0) b.time__AT3)))
(let ((.def_572 (+ b.delta__AT2 .def_569)))
(let ((.def_573 (+ b.time__AT2 .def_572)))
(let ((.def_574 (= .def_573 0.0 )))
(let ((.def_575 (or .def_502 .def_574)))
(let ((.def_576 (or b.EVENT.1__AT2 .def_575)))
(let ((.def_567 (or .def_501 .def_566)))
(let ((.def_568 (or b.EVENT.1__AT2 .def_567)))
(let ((.def_577 (and .def_568 .def_576)))
(let ((.def_584 (and .def_577 .def_583)))
(let ((.def_562 (= .def_502 b.event_is_timed__AT3)))
(let ((.def_560 (= b.event_is_timed__AT2 .def_501)))
(let ((.def_563 (and .def_560 .def_562)))
(let ((.def_549 (and .def_541 .def_548)))
(let ((.def_461 (<= 0.0 b.speed_y__AT2)))
(let ((.def_505 (not .def_461)))
(let ((.def_504 (= b.y__AT2 0.0 )))
(let ((.def_506 (and .def_504 .def_505)))
(let ((.def_550 (or .def_506 .def_549)))
(let ((.def_518 (or .def_9 b.counter.0__AT2)))
(let ((.def_517 (or b.counter.0__AT3 .def_339)))
(let ((.def_519 (and .def_517 .def_518)))
(let ((.def_520 (and .def_6 .def_519)))
(let ((.def_521 (or b.counter.1__AT2 .def_520)))
(let ((.def_516 (or b.counter.1__AT3 .def_327)))
(let ((.def_522 (and .def_516 .def_521)))
(let ((.def_533 (and .def_4 .def_522)))
(let ((.def_534 (or b.counter.2__AT2 .def_533)))
(let ((.def_528 (and .def_6 .def_339)))
(let ((.def_529 (or b.counter.1__AT2 .def_528)))
(let ((.def_530 (and .def_516 .def_529)))
(let ((.def_531 (and b.counter.2__AT3 .def_530)))
(let ((.def_532 (or .def_334 .def_531)))
(let ((.def_535 (and .def_532 .def_534)))
(let ((.def_536 (and b.counter.3__AT3 .def_535)))
(let ((.def_537 (or b.counter.3__AT2 .def_536)))
(let ((.def_523 (and b.counter.2__AT3 .def_522)))
(let ((.def_524 (or b.counter.2__AT2 .def_523)))
(let ((.def_512 (or b.counter.1__AT3 b.counter.1__AT2)))
(let ((.def_510 (and .def_6 b.counter.0__AT3)))
(let ((.def_511 (or .def_327 .def_510)))
(let ((.def_513 (and .def_511 .def_512)))
(let ((.def_514 (and .def_4 .def_513)))
(let ((.def_515 (or .def_334 .def_514)))
(let ((.def_525 (and .def_515 .def_524)))
(let ((.def_526 (and .def_14 .def_525)))
(let ((.def_527 (or .def_349 .def_526)))
(let ((.def_538 (and .def_527 .def_537)))
(let ((.def_302 (* (- 1.0) b.speed_y__AT2)))
(let ((.def_138 (* (- 1.0) speed_loss__AT0)))
(let ((.def_139 (+ 1.0 .def_138)))
(let ((.def_508 (* .def_139 .def_302)))
(let ((.def_509 (= b.speed_y__AT3 .def_508)))
(let ((.def_539 (and .def_509 .def_538)))
(let ((.def_507 (not .def_506)))
(let ((.def_540 (or .def_507 .def_539)))
(let ((.def_551 (and .def_540 .def_550)))
(let ((.def_553 (and .def_551 .def_552)))
(let ((.def_554 (and .def_482 .def_553)))
(let ((.def_556 (and .def_554 .def_555)))
(let ((.def_557 (or .def_501 .def_556)))
(let ((.def_558 (or b.EVENT.1__AT2 .def_557)))
(let ((.def_492 (* (- 1.0) b.y__AT3)))
(let ((.def_456 (* b.speed_y__AT2 b.delta__AT2)))
(let ((.def_496 (+ .def_456 .def_492)))
(let ((.def_454 (* b.delta__AT2 b.delta__AT2)))
(let ((.def_455 (* .def_79 .def_454)))
(let ((.def_497 (+ .def_455 .def_496)))
(let ((.def_498 (+ b.y__AT2 .def_497)))
(let ((.def_499 (= .def_498 0.0 )))
(let ((.def_486 (* (- 1.0) b.speed_y__AT3)))
(let ((.def_484 (* .def_78 b.delta__AT2)))
(let ((.def_487 (+ .def_484 .def_486)))
(let ((.def_488 (+ b.speed_y__AT2 .def_487)))
(let ((.def_489 (= .def_488 0.0 )))
(let ((.def_477 (* (- 1.0) b.x__AT3)))
(let ((.def_475 (* b.speed_x__AT2 b.delta__AT2)))
(let ((.def_478 (+ .def_475 .def_477)))
(let ((.def_479 (+ b.x__AT2 .def_478)))
(let ((.def_480 (= .def_479 0.0 )))
(let ((.def_483 (and .def_480 .def_482)))
(let ((.def_490 (and .def_483 .def_489)))
(let ((.def_500 (and .def_490 .def_499)))
(let ((.def_503 (or .def_500 .def_502)))
(let ((.def_559 (and .def_503 .def_558)))
(let ((.def_564 (and .def_559 .def_563)))
(let ((.def_585 (and .def_564 .def_584)))
(let ((.def_594 (and .def_585 .def_593)))
(let ((.def_597 (and .def_594 .def_596)))
(let ((.def_601 (and .def_597 .def_600)))
(let ((.def_602 (and .def_435 .def_601)))
(let ((.def_619 (and .def_602 .def_618)))
(let ((.def_627 (and .def_619 .def_626)))
(let ((.def_467 (* .def_93 b.delta__AT2)))
(let ((.def_468 (<= b.speed_y__AT2 .def_467)))
(let ((.def_466 (<= b.speed_y__AT2 0.0 )))
(let ((.def_469 (and .def_466 .def_468)))
(let ((.def_462 (* .def_87 b.delta__AT2)))
(let ((.def_463 (+ b.speed_y__AT2 .def_462)))
(let ((.def_464 (<= 0.0 .def_463)))
(let ((.def_465 (and .def_461 .def_464)))
(let ((.def_470 (or .def_465 .def_469)))
(let ((.def_457 (+ .def_455 .def_456)))
(let ((.def_458 (+ b.y__AT2 .def_457)))
(let ((.def_459 (<= 0.0 .def_458)))
(let ((.def_440 (<= 0.0 b.y__AT2)))
(let ((.def_460 (and .def_440 .def_459)))
(let ((.def_471 (and .def_460 .def_470)))
(let ((.def_472 (and .def_60 .def_471)))
(let ((.def_473 (and .def_68 .def_472)))
(let ((.def_156 (not b.counter.0__AT1)))
(let ((.def_144 (not b.counter.1__AT1)))
(let ((.def_445 (and .def_144 .def_156)))
(let ((.def_449 (or b.counter.3__AT1 .def_445)))
(let ((.def_446 (or b.counter.2__AT1 .def_445)))
(let ((.def_151 (not b.counter.2__AT1)))
(let ((.def_444 (or .def_144 .def_151)))
(let ((.def_447 (and .def_444 .def_446)))
(let ((.def_166 (not b.counter.3__AT1)))
(let ((.def_448 (or .def_166 .def_447)))
(let ((.def_450 (and .def_448 .def_449)))
(let ((.def_441 (and .def_69 .def_440)))
(let ((.def_438 (or .def_435 .def_437)))
(let ((.def_428 (or .def_327 .def_339)))
(let ((.def_432 (or b.counter.3__AT2 .def_428)))
(let ((.def_429 (or b.counter.2__AT2 .def_428)))
(let ((.def_427 (or .def_334 .def_339)))
(let ((.def_430 (and .def_427 .def_429)))
(let ((.def_431 (or .def_349 .def_430)))
(let ((.def_433 (and .def_431 .def_432)))
(let ((.def_439 (and .def_433 .def_438)))
(let ((.def_442 (and .def_439 .def_441)))
(let ((.def_422 (<= 0.0 b.delta__AT1)))
(let ((.def_254 (not b.EVENT.0__AT1)))
(let ((.def_252 (not b.EVENT.1__AT1)))
(let ((.def_317 (and .def_252 .def_254)))
(let ((.def_318 (not .def_317)))
(let ((.def_423 (or .def_318 .def_422)))
(let ((.def_424 (or b.EVENT.1__AT1 .def_423)))
(let ((.def_371 (= b.counter.0__AT1 b.counter.0__AT2)))
(let ((.def_369 (= b.counter.1__AT1 b.counter.1__AT2)))
(let ((.def_367 (= b.counter.2__AT1 b.counter.2__AT2)))
(let ((.def_366 (= b.counter.3__AT1 b.counter.3__AT2)))
(let ((.def_368 (and .def_366 .def_367)))
(let ((.def_370 (and .def_368 .def_369)))
(let ((.def_372 (and .def_370 .def_371)))
(let ((.def_419 (or .def_318 .def_372)))
(let ((.def_420 (or b.EVENT.1__AT1 .def_419)))
(let ((.def_379 (= b.x__AT1 b.x__AT2)))
(let ((.def_376 (= b.y__AT1 b.y__AT2)))
(let ((.def_413 (and .def_376 .def_379)))
(let ((.def_298 (= b.speed_x__AT1 b.speed_x__AT2)))
(let ((.def_414 (and .def_298 .def_413)))
(let ((.def_365 (= b.speed_y__AT1 b.speed_y__AT2)))
(let ((.def_415 (and .def_365 .def_414)))
(let ((.def_410 (= b.delta__AT1 0.0 )))
(let ((.def_411 (and .def_317 .def_410)))
(let ((.def_412 (not .def_411)))
(let ((.def_416 (or .def_412 .def_415)))
(let ((.def_417 (or b.EVENT.1__AT1 .def_416)))
(let ((.def_390 (= b.time__AT1 b.time__AT2)))
(let ((.def_402 (and .def_379 .def_390)))
(let ((.def_403 (and .def_376 .def_402)))
(let ((.def_404 (and .def_298 .def_403)))
(let ((.def_405 (and .def_365 .def_404)))
(let ((.def_406 (and .def_372 .def_405)))
(let ((.def_407 (or .def_252 .def_406)))
(let ((.def_393 (* (- 1.0) b.time__AT2)))
(let ((.def_396 (+ b.delta__AT1 .def_393)))
(let ((.def_397 (+ b.time__AT1 .def_396)))
(let ((.def_398 (= .def_397 0.0 )))
(let ((.def_399 (or .def_318 .def_398)))
(let ((.def_400 (or b.EVENT.1__AT1 .def_399)))
(let ((.def_391 (or .def_317 .def_390)))
(let ((.def_392 (or b.EVENT.1__AT1 .def_391)))
(let ((.def_401 (and .def_392 .def_400)))
(let ((.def_408 (and .def_401 .def_407)))
(let ((.def_386 (= .def_318 b.event_is_timed__AT2)))
(let ((.def_384 (= b.event_is_timed__AT1 .def_317)))
(let ((.def_387 (and .def_384 .def_386)))
(let ((.def_373 (and .def_365 .def_372)))
(let ((.def_277 (<= 0.0 b.speed_y__AT1)))
(let ((.def_321 (not .def_277)))
(let ((.def_320 (= b.y__AT1 0.0 )))
(let ((.def_322 (and .def_320 .def_321)))
(let ((.def_374 (or .def_322 .def_373)))
(let ((.def_340 (or b.counter.0__AT1 .def_339)))
(let ((.def_338 (or .def_156 b.counter.0__AT2)))
(let ((.def_341 (and .def_338 .def_340)))
(let ((.def_342 (and .def_327 .def_341)))
(let ((.def_343 (or b.counter.1__AT1 .def_342)))
(let ((.def_337 (or .def_144 b.counter.1__AT2)))
(let ((.def_344 (and .def_337 .def_343)))
(let ((.def_357 (and .def_334 .def_344)))
(let ((.def_358 (or b.counter.2__AT1 .def_357)))
(let ((.def_352 (and .def_156 .def_327)))
(let ((.def_353 (or b.counter.1__AT1 .def_352)))
(let ((.def_354 (and .def_337 .def_353)))
(let ((.def_355 (and b.counter.2__AT2 .def_354)))
(let ((.def_356 (or .def_151 .def_355)))
(let ((.def_359 (and .def_356 .def_358)))
(let ((.def_360 (and b.counter.3__AT2 .def_359)))
(let ((.def_361 (or b.counter.3__AT1 .def_360)))
(let ((.def_345 (and b.counter.2__AT2 .def_344)))
(let ((.def_346 (or b.counter.2__AT1 .def_345)))
(let ((.def_331 (or b.counter.1__AT1 b.counter.1__AT2)))
(let ((.def_329 (and .def_327 b.counter.0__AT2)))
(let ((.def_330 (or .def_144 .def_329)))
(let ((.def_332 (and .def_330 .def_331)))
(let ((.def_335 (and .def_332 .def_334)))
(let ((.def_336 (or .def_151 .def_335)))
(let ((.def_347 (and .def_336 .def_346)))
(let ((.def_350 (and .def_347 .def_349)))
(let ((.def_351 (or .def_166 .def_350)))
(let ((.def_362 (and .def_351 .def_361)))
(let ((.def_117 (* (- 1.0) b.speed_y__AT1)))
(let ((.def_324 (* .def_117 .def_139)))
(let ((.def_325 (= b.speed_y__AT2 .def_324)))
(let ((.def_363 (and .def_325 .def_362)))
(let ((.def_323 (not .def_322)))
(let ((.def_364 (or .def_323 .def_363)))
(let ((.def_375 (and .def_364 .def_374)))
(let ((.def_377 (and .def_375 .def_376)))
(let ((.def_378 (and .def_298 .def_377)))
(let ((.def_380 (and .def_378 .def_379)))
(let ((.def_381 (or .def_317 .def_380)))
(let ((.def_382 (or b.EVENT.1__AT1 .def_381)))
(let ((.def_308 (* (- 1.0) b.y__AT2)))
(let ((.def_272 (* b.speed_y__AT1 b.delta__AT1)))
(let ((.def_312 (+ .def_272 .def_308)))
(let ((.def_270 (* b.delta__AT1 b.delta__AT1)))
(let ((.def_271 (* .def_79 .def_270)))
(let ((.def_313 (+ .def_271 .def_312)))
(let ((.def_314 (+ b.y__AT1 .def_313)))
(let ((.def_315 (= .def_314 0.0 )))
(let ((.def_300 (* .def_78 b.delta__AT1)))
(let ((.def_303 (+ .def_300 .def_302)))
(let ((.def_304 (+ b.speed_y__AT1 .def_303)))
(let ((.def_305 (= .def_304 0.0 )))
(let ((.def_293 (* (- 1.0) b.x__AT2)))
(let ((.def_291 (* b.speed_x__AT1 b.delta__AT1)))
(let ((.def_294 (+ .def_291 .def_293)))
(let ((.def_295 (+ b.x__AT1 .def_294)))
(let ((.def_296 (= .def_295 0.0 )))
(let ((.def_299 (and .def_296 .def_298)))
(let ((.def_306 (and .def_299 .def_305)))
(let ((.def_316 (and .def_306 .def_315)))
(let ((.def_319 (or .def_316 .def_318)))
(let ((.def_383 (and .def_319 .def_382)))
(let ((.def_388 (and .def_383 .def_387)))
(let ((.def_409 (and .def_388 .def_408)))
(let ((.def_418 (and .def_409 .def_417)))
(let ((.def_421 (and .def_418 .def_420)))
(let ((.def_425 (and .def_421 .def_424)))
(let ((.def_426 (and .def_252 .def_425)))
(let ((.def_443 (and .def_426 .def_442)))
(let ((.def_451 (and .def_443 .def_450)))
(let ((.def_283 (* .def_93 b.delta__AT1)))
(let ((.def_284 (<= b.speed_y__AT1 .def_283)))
(let ((.def_282 (<= b.speed_y__AT1 0.0 )))
(let ((.def_285 (and .def_282 .def_284)))
(let ((.def_278 (* .def_87 b.delta__AT1)))
(let ((.def_279 (+ b.speed_y__AT1 .def_278)))
(let ((.def_280 (<= 0.0 .def_279)))
(let ((.def_281 (and .def_277 .def_280)))
(let ((.def_286 (or .def_281 .def_285)))
(let ((.def_273 (+ .def_271 .def_272)))
(let ((.def_274 (+ b.y__AT1 .def_273)))
(let ((.def_275 (<= 0.0 .def_274)))
(let ((.def_257 (<= 0.0 b.y__AT1)))
(let ((.def_276 (and .def_257 .def_275)))
(let ((.def_287 (and .def_276 .def_286)))
(let ((.def_288 (and .def_60 .def_287)))
(let ((.def_289 (and .def_68 .def_288)))
(let ((.def_34 (not b.counter.0__AT0)))
(let ((.def_32 (not b.counter.1__AT0)))
(let ((.def_35 (and .def_32 .def_34)))
(let ((.def_265 (or .def_35 b.counter.3__AT0)))
(let ((.def_262 (or .def_35 b.counter.2__AT0)))
(let ((.def_37 (not b.counter.2__AT0)))
(let ((.def_261 (or .def_32 .def_37)))
(let ((.def_263 (and .def_261 .def_262)))
(let ((.def_40 (not b.counter.3__AT0)))
(let ((.def_264 (or .def_40 .def_263)))
(let ((.def_266 (and .def_264 .def_265)))
(let ((.def_258 (and .def_69 .def_257)))
(let ((.def_255 (or .def_252 .def_254)))
(let ((.def_245 (or .def_144 .def_156)))
(let ((.def_249 (or b.counter.3__AT1 .def_245)))
(let ((.def_246 (or b.counter.2__AT1 .def_245)))
(let ((.def_244 (or .def_151 .def_156)))
(let ((.def_247 (and .def_244 .def_246)))
(let ((.def_248 (or .def_166 .def_247)))
(let ((.def_250 (and .def_248 .def_249)))
(let ((.def_256 (and .def_250 .def_255)))
(let ((.def_259 (and .def_256 .def_258)))
(let ((.def_239 (<= 0.0 b.delta__AT0)))
(let ((.def_53 (not b.EVENT.0__AT0)))
(let ((.def_51 (not b.EVENT.1__AT0)))
(let ((.def_131 (and .def_51 .def_53)))
(let ((.def_132 (not .def_131)))
(let ((.def_240 (or .def_132 .def_239)))
(let ((.def_241 (or b.EVENT.1__AT0 .def_240)))
(let ((.def_188 (= b.counter.0__AT0 b.counter.0__AT1)))
(let ((.def_186 (= b.counter.1__AT0 b.counter.1__AT1)))
(let ((.def_184 (= b.counter.2__AT0 b.counter.2__AT1)))
(let ((.def_183 (= b.counter.3__AT0 b.counter.3__AT1)))
(let ((.def_185 (and .def_183 .def_184)))
(let ((.def_187 (and .def_185 .def_186)))
(let ((.def_189 (and .def_187 .def_188)))
(let ((.def_236 (or .def_132 .def_189)))
(let ((.def_237 (or b.EVENT.1__AT0 .def_236)))
(let ((.def_196 (= b.x__AT1 b.x__AT0)))
(let ((.def_193 (= b.y__AT0 b.y__AT1)))
(let ((.def_230 (and .def_193 .def_196)))
(let ((.def_113 (= b.speed_x__AT0 b.speed_x__AT1)))
(let ((.def_231 (and .def_113 .def_230)))
(let ((.def_182 (= b.speed_y__AT0 b.speed_y__AT1)))
(let ((.def_232 (and .def_182 .def_231)))
(let ((.def_227 (= b.delta__AT0 0.0 )))
(let ((.def_228 (and .def_131 .def_227)))
(let ((.def_229 (not .def_228)))
(let ((.def_233 (or .def_229 .def_232)))
(let ((.def_234 (or b.EVENT.1__AT0 .def_233)))
(let ((.def_207 (= b.time__AT0 b.time__AT1)))
(let ((.def_219 (and .def_196 .def_207)))
(let ((.def_220 (and .def_193 .def_219)))
(let ((.def_221 (and .def_113 .def_220)))
(let ((.def_222 (and .def_182 .def_221)))
(let ((.def_223 (and .def_189 .def_222)))
(let ((.def_224 (or .def_51 .def_223)))
(let ((.def_210 (* (- 1.0) b.time__AT1)))
(let ((.def_213 (+ b.delta__AT0 .def_210)))
(let ((.def_214 (+ b.time__AT0 .def_213)))
(let ((.def_215 (= .def_214 0.0 )))
(let ((.def_216 (or .def_132 .def_215)))
(let ((.def_217 (or b.EVENT.1__AT0 .def_216)))
(let ((.def_208 (or .def_131 .def_207)))
(let ((.def_209 (or b.EVENT.1__AT0 .def_208)))
(let ((.def_218 (and .def_209 .def_217)))
(let ((.def_225 (and .def_218 .def_224)))
(let ((.def_203 (= .def_132 b.event_is_timed__AT1)))
(let ((.def_201 (= b.event_is_timed__AT0 .def_131)))
(let ((.def_204 (and .def_201 .def_203)))
(let ((.def_190 (and .def_182 .def_189)))
(let ((.def_86 (<= 0.0 b.speed_y__AT0)))
(let ((.def_135 (not .def_86)))
(let ((.def_134 (= b.y__AT0 0.0 )))
(let ((.def_136 (and .def_134 .def_135)))
(let ((.def_191 (or .def_136 .def_190)))
(let ((.def_157 (or b.counter.0__AT0 .def_156)))
(let ((.def_155 (or .def_34 b.counter.0__AT1)))
(let ((.def_158 (and .def_155 .def_157)))
(let ((.def_159 (and .def_144 .def_158)))
(let ((.def_160 (or b.counter.1__AT0 .def_159)))
(let ((.def_154 (or .def_32 b.counter.1__AT1)))
(let ((.def_161 (and .def_154 .def_160)))
(let ((.def_174 (and .def_151 .def_161)))
(let ((.def_175 (or b.counter.2__AT0 .def_174)))
(let ((.def_169 (and .def_34 .def_144)))
(let ((.def_170 (or b.counter.1__AT0 .def_169)))
(let ((.def_171 (and .def_154 .def_170)))
(let ((.def_172 (and b.counter.2__AT1 .def_171)))
(let ((.def_173 (or .def_37 .def_172)))
(let ((.def_176 (and .def_173 .def_175)))
(let ((.def_177 (and b.counter.3__AT1 .def_176)))
(let ((.def_178 (or b.counter.3__AT0 .def_177)))
(let ((.def_162 (and b.counter.2__AT1 .def_161)))
(let ((.def_163 (or b.counter.2__AT0 .def_162)))
(let ((.def_148 (or b.counter.1__AT0 b.counter.1__AT1)))
(let ((.def_146 (and .def_144 b.counter.0__AT1)))
(let ((.def_147 (or .def_32 .def_146)))
(let ((.def_149 (and .def_147 .def_148)))
(let ((.def_152 (and .def_149 .def_151)))
(let ((.def_153 (or .def_37 .def_152)))
(let ((.def_164 (and .def_153 .def_163)))
(let ((.def_167 (and .def_164 .def_166)))
(let ((.def_168 (or .def_40 .def_167)))
(let ((.def_179 (and .def_168 .def_178)))
(let ((.def_140 (* (- 1.0) b.speed_y__AT0)))
(let ((.def_141 (* .def_139 .def_140)))
(let ((.def_142 (= b.speed_y__AT1 .def_141)))
(let ((.def_180 (and .def_142 .def_179)))
(let ((.def_137 (not .def_136)))
(let ((.def_181 (or .def_137 .def_180)))
(let ((.def_192 (and .def_181 .def_191)))
(let ((.def_194 (and .def_192 .def_193)))
(let ((.def_195 (and .def_113 .def_194)))
(let ((.def_197 (and .def_195 .def_196)))
(let ((.def_198 (or .def_131 .def_197)))
(let ((.def_199 (or b.EVENT.1__AT0 .def_198)))
(let ((.def_123 (* (- 1.0) b.y__AT1)))
(let ((.def_81 (* b.speed_y__AT0 b.delta__AT0)))
(let ((.def_126 (+ .def_81 .def_123)))
(let ((.def_76 (* b.delta__AT0 b.delta__AT0)))
(let ((.def_80 (* .def_76 .def_79)))
(let ((.def_127 (+ .def_80 .def_126)))
(let ((.def_128 (+ b.y__AT0 .def_127)))
(let ((.def_129 (= .def_128 0.0 )))
(let ((.def_115 (* b.delta__AT0 .def_78)))
(let ((.def_118 (+ .def_115 .def_117)))
(let ((.def_119 (+ b.speed_y__AT0 .def_118)))
(let ((.def_120 (= .def_119 0.0 )))
(let ((.def_105 (* (- 1.0) b.x__AT1)))
(let ((.def_109 (+ .def_105 b.x__AT0)))
(let ((.def_103 (* b.delta__AT0 b.speed_x__AT0)))
(let ((.def_110 (+ .def_103 .def_109)))
(let ((.def_111 (= .def_110 0.0 )))
(let ((.def_114 (and .def_111 .def_113)))
(let ((.def_121 (and .def_114 .def_120)))
(let ((.def_130 (and .def_121 .def_129)))
(let ((.def_133 (or .def_130 .def_132)))
(let ((.def_200 (and .def_133 .def_199)))
(let ((.def_205 (and .def_200 .def_204)))
(let ((.def_226 (and .def_205 .def_225)))
(let ((.def_235 (and .def_226 .def_234)))
(let ((.def_238 (and .def_235 .def_237)))
(let ((.def_242 (and .def_238 .def_241)))
(let ((.def_243 (and .def_51 .def_242)))
(let ((.def_260 (and .def_243 .def_259)))
(let ((.def_267 (and .def_260 .def_266)))
(let ((.def_94 (* b.delta__AT0 .def_93)))
(let ((.def_95 (<= b.speed_y__AT0 .def_94)))
(let ((.def_92 (<= b.speed_y__AT0 0.0 )))
(let ((.def_96 (and .def_92 .def_95)))
(let ((.def_88 (* b.delta__AT0 .def_87)))
(let ((.def_89 (+ b.speed_y__AT0 .def_88)))
(let ((.def_90 (<= 0.0 .def_89)))
(let ((.def_91 (and .def_86 .def_90)))
(let ((.def_97 (or .def_91 .def_96)))
(let ((.def_82 (+ .def_80 .def_81)))
(let ((.def_83 (+ b.y__AT0 .def_82)))
(let ((.def_84 (<= 0.0 .def_83)))
(let ((.def_70 (<= 0.0 b.y__AT0)))
(let ((.def_85 (and .def_70 .def_84)))
(let ((.def_98 (and .def_85 .def_97)))
(let ((.def_99 (and .def_60 .def_98)))
(let ((.def_100 (and .def_68 .def_99)))
(let ((.def_71 (and .def_69 .def_70)))
(let ((.def_54 (or .def_51 .def_53)))
(let ((.def_44 (or .def_32 .def_34)))
(let ((.def_48 (or b.counter.3__AT0 .def_44)))
(let ((.def_45 (or b.counter.2__AT0 .def_44)))
(let ((.def_43 (or .def_34 .def_37)))
(let ((.def_46 (and .def_43 .def_45)))
(let ((.def_47 (or .def_40 .def_46)))
(let ((.def_49 (and .def_47 .def_48)))
(let ((.def_55 (and .def_49 .def_54)))
(let ((.def_72 (and .def_55 .def_71)))
(let ((.def_38 (and .def_35 .def_37)))
(let ((.def_41 (and .def_38 .def_40)))
(let ((.def_29 (= b.speed_y__AT0 0.0 )))
(let ((.def_26 (= b.y__AT0 10.0 )))
(let ((.def_21 (= b.time__AT0 0.0 )))
(let ((.def_23 (and .def_21 b.event_is_timed__AT0)))
(let ((.def_27 (and .def_23 .def_26)))
(let ((.def_30 (and .def_27 .def_29)))
(let ((.def_42 (and .def_30 .def_41)))
(let ((.def_73 (and .def_42 .def_72)))
(let ((.def_10 (and .def_6 .def_9)))
(let ((.def_16 (or .def_10 b.counter.3__AT3)))
(let ((.def_11 (or b.counter.2__AT3 .def_10)))
(let ((.def_7 (or .def_4 .def_6)))
(let ((.def_12 (and .def_7 .def_11)))
(let ((.def_15 (or .def_12 .def_14)))
(let ((.def_17 (and .def_15 .def_16)))
(let ((.def_18 (not .def_17)))
(let ((.def_74 (and .def_18 .def_73)))
(let ((.def_101 (and .def_74 .def_100)))
(let ((.def_268 (and .def_101 .def_267)))
(let ((.def_290 (and .def_268 .def_289)))
(let ((.def_452 (and .def_290 .def_451)))
(let ((.def_474 (and .def_452 .def_473)))
(let ((.def_628 (and .def_474 .def_627)))
(let ((.def_650 (and .def_628 .def_649)))
.def_650)))))))))))))))))))))))))))))))))))))))))))))))))))))))))))))))))))))))))))))))))))))))))))))))))))))))))))))))))))))))))))))))))))))))))))))))))))))))))))))))))))))))))))))))))))))))))))))))))))))))))))))))))))))))))))))))))))))))))))))))))))))))))))))))))))))))))))))))))))))))))))))))))))))))))))))))))))))))))))))))))))))))))))))))))))))))))))))))))))))))))))))))))))))))))))))))))))))))))))))))))))))))))))))))))))))))))))))))))))))))))))))))))))))))))))))))))))))))))))))))))))))))))))))))))))))))))))))))))))))))))))))))))))))))))))))))))))))))))))))))))))))))))))
(check-sat)
(exit)
